200
1000
265
265
262
262
262
260
259
259
256
251
251
251
249
248
246
245
244
241
239
238
238
238
238
237
237
232
226
224
222
220
219
218
217
217
216
214
212
211
209
208
208
208
207
206
205
204
204
203
203
201
198
197
197
197
191
191
189
188
188
187
187
182
180
180
180
179
179
177
175
175
175
173
173
173
173
173
168
167
166
166
166
165
163
162
159
158
158
158
157
155
153
153
151
151
151
150
150
149
149
148
144
143
142
138
135
135
135
134
134
133
132
130
129
127
126
126
123
121
121
120
118
118
116
116
115
113
113
112
111
110
109
108
108
107
106
105
104
100
99
99
98
98
97
97
92
91
90
90
88
88
84
84
84
80
76
74
73
71
69
69
68
68
67
67
66
65
64
63
63
62
59
59
58
58
57
57
56
55
53
52
52
49
47
46
44
44
40
36
32
31
29
29
28
27
24
23
21
20
18
16
